
******************************************************************************
This program contains Ipopt, a library for large-scale nonlinear optimization.
 Ipopt is released as open source code under the Eclipse Public License (EPL).
         For more information visit https://github.com/coin-or/Ipopt
******************************************************************************

This is Ipopt version 3.14.18, running with linear solver MUMPS 5.8.0.

Number of nonzeros in equality constraint Jacobian...:    19902
Number of nonzeros in inequality constraint Jacobian.:        1
Number of nonzeros in Lagrangian Hessian.............:     6477

Total number of variables............................:     2494
                     variables with only lower bounds:        0
                variables with lower and upper bounds:     2494
                     variables with only upper bounds:        0
Total number of equality constraints.................:     2000
Total number of inequality constraints...............:        1
        inequality constraints with only lower bounds:        0
   inequality constraints with lower and upper bounds:        1
        inequality constraints with only upper bounds:        0

iter    objective    inf_pr   inf_du lg(mu)  ||d||  lg(rg) alpha_du alpha_pr  ls
   0  2.4000000e+00 6.74e-02 6.00e+00   0.0 0.00e+00    -  0.00e+00 0.00e+00   0
   1  5.9640001e+00 3.69e-02 7.44e+02   0.2 8.05e+00    -  2.65e-01 4.43e-01f  1
   2  3.9210322e+00 1.76e-03 1.36e+03  -0.1 2.14e+00   2.0 9.90e-01 9.57e-01h  1
   3  4.0995107e+00 1.64e-03 1.28e+03  -6.0 2.86e+00    -  1.87e-01 6.23e-02h  3
   4  4.5816258e+00 9.23e-03 1.11e+03  -0.7 6.29e+00    -  1.01e-01 7.66e-02f  1
   5  5.5890097e+00 2.33e-02 1.15e+03  -0.2 1.81e+01    -  2.91e-02 5.57e-02f  1
   6  5.9958902e+00 1.63e-02 2.27e+03  -0.2 1.08e+00   1.5 9.91e-01 3.78e-01f  1
   7  5.9692382e+00 1.02e-03 8.53e+01  -0.2 1.23e-01   1.0 1.00e+00 1.00e+00f  1
   8  5.9690225e+00 1.86e-05 6.26e+00  -1.7 1.26e-02   0.6 9.99e-01 1.00e+00h  1
   9  5.9308147e+00 7.29e-04 2.96e+02  -1.7 5.14e-02   0.1 9.64e-01 1.00e+00f  1
iter    objective    inf_pr   inf_du lg(mu)  ||d||  lg(rg) alpha_du alpha_pr  ls
  10  5.7516834e+00 1.69e-03 2.77e+00  -1.8 1.79e-01  -0.4 1.00e+00 1.00e+00f  1
  11  4.5675023e+00 7.31e-03 2.97e+01  -2.3 1.18e+00  -0.9 1.00e+00 1.00e+00f  1
  12  4.5895314e+00 5.94e-05 2.05e+00  -2.4 3.27e-02   0.5 1.00e+00 1.00e+00h  1
  13  4.2611504e+00 9.92e-04 1.07e+00  -3.0 3.28e-01  -0.0 1.00e+00 1.00e+00f  1
  14  3.6959523e+00 1.79e-03 1.24e+02  -3.7 6.61e-01  -0.5 1.00e+00 8.55e-01f  1
  15  3.6651632e+00 7.72e-04 6.90e+02  -4.1 5.41e-02  -0.1 1.00e+00 5.70e-01h  1
  16  3.5801658e+00 4.59e-04 1.75e+03  -4.9 1.99e-01  -0.5 1.00e+00 4.26e-01h  1
  17  3.4883772e+00 3.59e-04 3.44e+03  -5.8 3.56e-01  -1.0 1.00e+00 2.58e-01h  1
  18  3.4523936e+00 2.88e-04 6.74e+03  -5.6 1.68e-01  -0.6 1.00e+00 2.15e-01h  1
  19  3.3783673e+00 2.43e-04 5.16e+03  -6.1 3.20e-01  -1.1 1.00e+00 2.31e-01h  1
iter    objective    inf_pr   inf_du lg(mu)  ||d||  lg(rg) alpha_du alpha_pr  ls
  20  3.3506055e+00 2.07e-04 4.34e+03  -5.0 1.64e-01  -0.6 1.00e+00 1.69e-01h  1
  21  3.2828784e+00 2.03e-04 3.38e+03  -5.4 3.55e-01  -1.1 1.00e+00 1.91e-01h  1
  22  3.2372872e+00 1.76e-04 2.68e+03  -4.9 1.90e-01  -0.7 1.00e+00 2.40e-01h  1
  23  3.1861611e+00 1.82e-04 2.33e+03  -5.4 3.65e-01  -1.2 1.00e+00 1.40e-01h  1
  24  3.1352502e+00 1.70e-04 1.85e+03  -5.1 1.98e-01  -0.7 1.00e+00 2.57e-01h  1
  25  3.0700158e+00 1.99e-04 1.59e+03  -5.5 3.54e-01  -1.2 1.00e+00 1.84e-01f  1
  26  3.0349004e+00 1.78e-04 1.33e+03  -5.2 1.79e-01  -0.8 1.00e+00 1.96e-01h  1
  27  2.9482303e+00 2.46e-04 1.08e+03  -5.6 3.22e-01  -1.3 1.00e+00 2.69e-01f  1
  28  2.9317449e+00 2.21e-04 1.10e+03  -5.8 1.42e-01  -0.8 1.00e+00 1.16e-01h  1
  29  2.8861732e+00 2.03e-04 1.02e+03  -6.2 2.59e-01  -1.3 1.00e+00 1.93e-01h  1
iter    objective    inf_pr   inf_du lg(mu)  ||d||  lg(rg) alpha_du alpha_pr  ls
  30  2.8624085e+00 1.74e-04 9.83e+02  -6.3 1.47e-01  -0.9 1.00e+00 1.82e-01h  1
  31  2.8254592e+00 1.63e-04 1.04e+03  -6.6 2.86e-01  -1.4 1.00e+00 1.63e-01h  1
  32  2.8083223e+00 1.43e-04 9.71e+02  -5.4 1.47e-01  -0.9 1.00e+00 1.48e-01h  1
  33  2.7711503e+00 1.42e-04 6.84e+02  -5.7 3.46e-01  -1.4 1.00e+00 1.56e-01h  1
  34  2.7593111e+00 1.29e-04 7.41e+02  -6.3 1.60e-01  -1.0 1.00e+00 1.06e-01h  1
  35  2.7254769e+00 1.23e-04 9.28e+02  -6.7 3.11e-01  -1.5 1.00e+00 1.62e-01h  1
  36  2.7113145e+00 1.07e-04 9.84e+02  -6.6 1.60e-01  -1.1 1.00e+00 1.52e-01h  1
  37  2.6818992e+00 1.02e-04 1.03e+03  -6.9 3.56e-01  -1.5 1.00e+00 1.55e-01h  1
  38  2.6693362e+00 8.88e-05 1.09e+03  -6.2 1.67e-01  -1.1 1.00e+00 1.53e-01h  1
  39  2.6480761e+00 8.46e-05 8.47e+02  -6.5 3.88e-01  -1.6 1.00e+00 1.19e-01h  1
iter    objective    inf_pr   inf_du lg(mu)  ||d||  lg(rg) alpha_du alpha_pr  ls
  40  2.6437145e+00 1.11e-04 8.24e+02  -4.3 2.60e+00  -2.1 2.81e-02 1.23e-02h  1
  41  2.6281874e+00 1.05e-04 3.69e+02  -6.2 3.89e-01  -1.6 1.00e+00 8.99e-02h  1
  42  2.6158826e+00 8.61e-05 7.00e+02  -6.8 1.73e-01  -1.2 1.00e+00 1.94e-01h  1
  43  2.6001165e+00 7.90e-05 1.10e+03  -7.1 3.88e-01  -1.7 1.00e+00 1.18e-01h  1
  44  2.5861052e+00 9.16e-05 1.48e+03  -7.1 7.95e-01  -2.2 1.00e+00 5.53e-02h  1
  45  2.5678563e+00 7.95e-05 1.16e+03  -7.4 3.61e-01  -1.7 1.00e+00 1.80e-01h  1
  46  2.5511576e+00 9.70e-05 1.61e+03  -7.4 8.08e-01  -2.2 1.00e+00 8.56e-02h  1
  47  2.5429088e+00 8.66e-05 1.50e+03  -6.5 3.35e-01  -1.8 1.00e+00 1.22e-01h  1
  48  2.5297834e+00 1.11e-04 9.73e+02  -6.6 7.59e-01  -2.3 1.00e+00 8.38e-02h  1
  49  2.5228057e+00 9.81e-05 8.92e+02  -6.6 3.17e-01  -1.8 1.00e+00 1.38e-01h  1
iter    objective    inf_pr   inf_du lg(mu)  ||d||  lg(rg) alpha_du alpha_pr  ls
  50  2.5106407e+00 1.25e-04 9.69e+02  -6.7 6.86e-01  -2.3 1.00e+00 9.71e-02h  1
  51  2.5051211e+00 1.10e-04 9.23e+02  -6.3 2.81e-01  -1.9 1.00e+00 1.42e-01h  1
  52  2.4931900e+00 1.47e-04 7.96e+02  -6.4 6.60e-01  -2.4 1.00e+00 1.15e-01h  1
  53  2.4879434e+00 1.26e-04 7.13e+02  -5.6 2.43e-01  -1.9 1.00e+00 1.71e-01h  1
  54  2.4780583e+00 1.60e-04 4.96e+02  -5.8 5.37e-01  -2.4 1.00e+00 1.26e-01h  1
  55  2.4731212e+00 1.28e-04 4.32e+02  -5.4 2.01e-01  -2.0 1.00e+00 2.44e-01h  1
  56  2.4640949e+00 1.63e-04 4.21e+02  -5.7 4.45e-01  -2.5 1.00e+00 1.82e-01h  1
  57  2.4600121e+00 1.18e-04 3.43e+02  -5.3 1.56e-01  -2.0 1.00e+00 3.24e-01h  1
  58  2.4529003e+00 1.73e-04 3.47e+02  -5.5 3.92e-01  -2.5 1.00e+00 2.25e-01h  1
  59  2.4500031e+00 9.35e-05 1.66e+02  -5.0 1.18e-01  -2.1 1.00e+00 5.17e-01h  1
iter    objective    inf_pr   inf_du lg(mu)  ||d||  lg(rg) alpha_du alpha_pr  ls
  60  2.4448882e+00 1.49e-04 2.58e+02  -5.2 3.89e-01  -2.6 1.00e+00 2.71e-01h  1
  61  2.4409319e+00 6.08e-05 1.26e+02  -5.2 8.65e-02  -2.1 1.00e+00 6.92e-01h  1
  62  2.4371257e+00 7.39e-05 3.32e+02  -5.6 3.02e-01  -2.6 1.00e+00 2.96e-01h  1
  63  2.4338460e+00 1.16e-04 4.95e+02  -5.7 1.05e+00  -3.1 1.00e+00 1.37e-01h  1
  64  2.4292621e+00 1.28e-04 4.36e+02  -5.4 1.07e+00  -3.6 1.00e+00 2.06e-01h  1
  65  2.4278959e+00 1.15e-04 3.01e+02  -4.9 1.94e+00    -  1.00e+00 1.27e-01h  1
  66  2.4247522e+00 1.90e-05 2.13e+01  -5.4 2.69e-01    -  1.00e+00 9.38e-01h  1
  67  2.4221454e+00 3.82e-06 3.93e+00  -5.9 3.03e-01    -  1.00e+00 9.92e-01h  1
  68  2.4217709e+00 3.36e-07 2.64e-02  -6.1 4.48e-01    -  1.00e+00 1.00e+00h  1
  69  2.4214710e+00 1.98e-07 1.61e-02  -6.3 3.30e-01    -  1.00e+00 1.00e+00h  1
iter    objective    inf_pr   inf_du lg(mu)  ||d||  lg(rg) alpha_du alpha_pr  ls
  70  2.4212381e+00 1.32e-07 2.25e+02  -7.4 2.34e-01    -  1.00e+00 7.37e-01h  1
  71  2.4211359e+00 3.98e-08 4.88e+01  -8.0 6.05e-02    -  1.00e+00 9.69e-01h  1
  72  2.4219037e+00 7.99e-07 1.25e+03  -6.0 5.21e-01    -  4.00e-01 1.00e+00f  1
  73  2.4215909e+00 5.95e-07 1.58e+02  -6.4 7.90e-01    -  7.92e-01 6.71e-01h  1
  74  2.4214406e+00 3.93e-08 2.18e-03  -6.4 8.45e-02    -  1.00e+00 1.00e+00f  1
  75  2.4214398e+00 3.90e-08 7.13e-05  -6.4 5.49e-02    -  1.00e+00 1.00e+00h  1
  76  2.4214405e+00 3.73e-08 9.36e+01  -6.4 1.56e-02    -  8.41e-01 1.00e+00h  1
  77  2.4213799e+00 3.26e-08 6.03e-04  -6.5 1.24e-02    -  1.00e+00 1.00e+00h  1
  78  2.4211493e+00 3.34e-08 2.73e-03  -7.7 5.14e-02    -  1.00e+00 1.00e+00h  1
  79  2.4211479e+00 3.27e-08 4.15e+02  -7.8 3.33e-02    -  7.14e-01 1.00e+00h  1
iter    objective    inf_pr   inf_du lg(mu)  ||d||  lg(rg) alpha_du alpha_pr  ls
  80  2.4211627e+00 3.27e-08 2.64e+03  -7.8 3.89e-01    -  4.58e-01 1.00e+00H  1
  81  2.4211625e+00 3.27e-08 1.11e-05  -7.8 3.22e-03    -  1.00e+00 1.00e+00h  1
  82  2.4211506e+00 3.27e-08 6.40e+01  -9.8 1.92e-03    -  1.00e+00 9.57e-01h  1
  83  2.4211504e+00 3.27e-08 3.49e-05  -9.7 3.38e-03    -  1.00e+00 1.00e+00h  1
  84  2.4211653e+00 3.26e-08 3.33e+03  -7.7 2.54e-03    -  2.54e-01 1.00e+00f  1
  85  2.4211546e+00 6.16e-08 2.08e+02  -8.2 3.61e-03    -  2.61e-01 1.00e+00h  1
  86  2.4211547e+00 3.91e-09 1.12e-05  -8.2 2.66e-03    -  1.00e+00 1.00e+00h  1
  87  2.4211610e+00 1.48e-09 4.39e+00  -7.8 6.50e-03    -  9.21e-01 1.00e+00h  1
  88  2.4211587e+00 1.14e-09 2.37e-05  -8.0 1.15e-02    -  1.00e+00 1.00e+00h  1
  89  2.4211533e+00 1.16e-09 2.74e-05  -8.5 2.58e-02    -  1.00e+00 1.00e+00h  1
iter    objective    inf_pr   inf_du lg(mu)  ||d||  lg(rg) alpha_du alpha_pr  ls
  90  2.4211512e+00 1.17e-09 1.48e-05  -9.9 3.20e-02    -  1.00e+00 1.00e+00h  1
  91  2.4211511e+00 1.17e-09 1.27e-06 -11.0 7.39e-04    -  1.00e+00 1.00e+00h  1
  92  2.4211511e+00 1.17e-09 2.25e-08 -11.0 6.49e-05    -  1.00e+00 1.00e+00h  1

Number of Iterations....: 92

                                   (scaled)                 (unscaled)
Objective...............:   2.4211511257369711e+00    2.4211511257369711e+00
Dual infeasibility......:   2.2544851162970214e-08    2.2544851162970214e-08
Constraint violation....:   1.1729616167244217e-09    1.1729616167244217e-09
Variable bound violation:   9.6102346081039514e-09    9.6102346081039514e-09
Complementarity.........:   1.7067872169100754e-11    1.7067872169100754e-11
Overall NLP error.......:   5.2380064287761269e-09    2.2544851162970214e-08


Number of objective function evaluations             = 98
Number of objective gradient evaluations             = 93
Number of equality constraint evaluations            = 98
Number of inequality constraint evaluations          = 98
Number of equality constraint Jacobian evaluations   = 93
Number of inequality constraint Jacobian evaluations = 93
Number of Lagrangian Hessian evaluations             = 92
Total seconds in IPOPT                               = 1.903

EXIT: Optimal Solution Found.
